\ENCODING=ISO-8859-1
\Problem name: instances

Maximize
 obj:
Subject To
 c1: 30 x1 + 41 x2 + x3 + 59 x4 + 45 x5 + 87 x6 + 30 x7 + 11 x8 + 91 x9
     - 22 x10 <= 339
 c2: 66 x1 + 59 x2 + 78 x3 + 23 x4 + 11 x5 + 95 x6 + 24 x7 + 40 x8 + 91 x9
     - 79 x10 <= 149
 c3: 18 x1 + 86 x2 + 3 x3 + 34 x4 + 64 x5 + 48 x6 + 75 x8 + 51 x9 + 57 x10
     <= 306
 c4: 52 x1 - 96 x2 + 41 x3 + 75 x4 + 2 x5 + 45 x6 + 30 x8 + 39 x9 - 20 x10
     <= 113
 c5: 13 x1 + 83 x2 - 59 x3 + 53 x4 + 32 x5 + 14 x8 + 68 x9 + 5 x10 <= 145
Bounds
      x1 >= 0
      x2 >= 0
      x3 >= 0
      x4 >= 0
      x5 >= 0
      x6 >= 0
      x7 >= 0
      x8 >= 0
      x9 >= 0
      x10 >= 0
Generals
 x1  x2  x3  x4  x5  x6  x7  x8  x9  x10 
End
